nN = 5;
nR = 20;
nH = 1;

a = [[11, 19, 24, 11, 11, 23, 15, 25, 17, 20, 15, 16, 10, 19, 23, 17, 14, 20, 18, 14], [13, 16, 20, 13, 24, 23, 24, 23, 12, 21, 17, 20, 22, 11, 25, 12, 10, 14, 17, 15], [16, 14, 13, 21, 19, 22, 13, 10, 16, 15, 22, 16, 24, 19, 23, 19, 24, 10, 23, 10], [17, 12, 20, 13, 21, 24, 14, 14, 14, 16, 12, 15, 24, 18, 13, 17, 18, 18, 12, 11], [19, 22, 23, 14, 11, 14, 18, 13, 25, 18, 11, 10, 21, 21, 25, 20, 11, 11, 13, 13]];
c = [[[0, 0, 0, 0, 0, 0, 0, 0, 0, 0, 0, 0, 0, 0, 0, 0, 0, 0, 0, 0], [46, 34, 30, 31, 41, 47, 33, 35, 33, 39, 50, 44, 48, 50, 38, 31, 50, 33, 38, 37], [38, 37, 45, 44, 33, 48, 37, 30, 36, 37, 31, 36, 47, 41, 44, 41, 40, 38, 36, 48], [42, 41, 45, 43, 46, 41, 34, 50, 38, 31, 36, 35, 39, 39, 44, 31, 40, 37, 34, 36], [36, 41, 47, 42, 47, 45, 43, 30, 44, 43, 40, 48, 39, 33, 34, 39, 33, 40, 43, 45]], [[0, 0, 0, 0, 0, 0, 0, 0, 0, 0, 0, 0, 0, 0, 0, 0, 0, 0, 0, 0], [0, 0, 0, 0, 0, 0, 0, 0, 0, 0, 0, 0, 0, 0, 0, 0, 0, 0, 0, 0], [36, 39, 42, 47, 35, 31, 47, 41, 31, 40, 50, 48, 34, 30, 44, 31, 46, 48, 37, 46], [34, 48, 41, 46, 40, 31, 41, 30, 45, 35, 34, 48, 31, 49, 30, 45, 35, 31, 37, 46], [44, 44, 45, 45, 46, 46, 39, 39, 37, 32, 48, 41, 31, 30, 37, 41, 45, 35, 41, 46]], [[0, 0, 0, 0, 0, 0, 0, 0, 0, 0, 0, 0, 0, 0, 0, 0, 0, 0, 0, 0], [0, 0, 0, 0, 0, 0, 0, 0, 0, 0, 0, 0, 0, 0, 0, 0, 0, 0, 0, 0], [0, 0, 0, 0, 0, 0, 0, 0, 0, 0, 0, 0, 0, 0, 0, 0, 0, 0, 0, 0], [30, 43, 35, 40, 30, 44, 44, 41, 32, 44, 43, 43, 40, 30, 39, 43, 37, 42, 49, 48], [35, 35, 33, 42, 45, 40, 40, 33, 31, 43, 37, 37, 31, 43, 34, 44, 39, 35, 33, 40]], [[0, 0, 0, 0, 0, 0, 0, 0, 0, 0, 0, 0, 0, 0, 0, 0, 0, 0, 0, 0], [0, 0, 0, 0, 0, 0, 0, 0, 0, 0, 0, 0, 0, 0, 0, 0, 0, 0, 0, 0], [0, 0, 0, 0, 0, 0, 0, 0, 0, 0, 0, 0, 0, 0, 0, 0, 0, 0, 0, 0], [0, 0, 0, 0, 0, 0, 0, 0, 0, 0, 0, 0, 0, 0, 0, 0, 0, 0, 0, 0], [39, 48, 33, 36, 30, 35, 44, 31, 47, 47, 37, 43, 48, 30, 42, 30, 34, 35, 45, 32]], [[0, 0, 0, 0, 0, 0, 0, 0, 0, 0, 0, 0, 0, 0, 0, 0, 0, 0, 0, 0], [0, 0, 0, 0, 0, 0, 0, 0, 0, 0, 0, 0, 0, 0, 0, 0, 0, 0, 0, 0], [0, 0, 0, 0, 0, 0, 0, 0, 0, 0, 0, 0, 0, 0, 0, 0, 0, 0, 0, 0], [0, 0, 0, 0, 0, 0, 0, 0, 0, 0, 0, 0, 0, 0, 0, 0, 0, 0, 0, 0], [0, 0, 0, 0, 0, 0, 0, 0, 0, 0, 0, 0, 0, 0, 0, 0, 0, 0, 0, 0]]];

q = [[[18], [6], [5], [16], [21], [16], [19], [23], [16], [20], [14], [18], [11], [20], [5], [13], [7], [10], [5], [13]], [[12], [16], [21], [10], [17], [7], [19], [8], [24], [19], [6], [18], [24], [12], [8], [18], [22], [25], [12], [18]], [[7], [22], [23], [12], [23], [18], [6], [23], [14], [8], [16], [10], [20], [12], [14], [13], [13], [11], [19], [15]], [[6], [23], [7], [10], [13], [14], [11], [17], [10], [14], [22], [9], [18], [7], [19], [15], [19], [5], [24], [13]], [[16], [10], [19], [14], [7], [18], [25], [14], [8], [8], [7], [8], [22], [24], [16], [18], [16], [11], [8], [9]]];
Q = [[45], [51], [48], [45], [46]];
